50
1 5 15
2 14 28
3 0 5
4 27 4
5 25 2
6 2 15
7 6 21
8 16 22
9 2 30
10 0 26
11 12 23
12 28 22
13 14 10
14 14 9
15 23 11
16 15 18
17 12 1
18 7 18
19 14 30
20 13 24
21 7 26
22 14 2
23 4 20
24 22 20
25 10 19
26 21 16
27 17 16
28 26 25
29 21 22
30 4 18
31 14 1
32 26 28
33 20 29
34 14 7
35 15 27
36 5 11
37 9 16
38 28 21
39 15 14
40 13 13
41 2 0
42 2 26
43 23 5
44 6 28
45 24 2
46 18 17
47 15 14
48 15 11
49 29 16
50 7 15
